
--- Job sp.gms Start 02/15/22 15:42:37 38.1.0 a1a3b545 WEX-WEI x86 64bit/MS Windows
--- Applying:
    C:\GAMS\38\gmsprmNT.txt
--- GAMS Parameters defined
    Input C:\projects\OptimizationModels\ShortestPath\sp.gms
    PageSize 0
    ScrDir C:\projects\OptimizationModels\ShortestPath\225a\
    SysDir C:\GAMS\38\
    LogOption 3
    ErrMsg 1
    ErrorLog 99
    IDE 1
    LstTitleLeftAligned 1
Licensee: Eval License                                   G211206|0002CO-GEN
          Amsterdam Optimization Modeling Group,                     DCE378
          C:\Users\erwin\OneDrive\Documents\GAMS\gamslice.txt
          License Admin: Erwin Kalvelagen, info@amsterdamoptimization.com  
          Evaluation license: Not for commercial or production use
Processor information: 1 socket(s), 8 core(s), and 16 thread(s) available
GAMS 38.1.0   Copyright (C) 1987-2022 GAMS Development. All rights reserved
--- Starting compilation
--- sp.gms(192) 3 Mb
--- $echo File C:\projects\OptimizationModels\ShortestPath\network.html
--- sp.gms(290) 3 Mb
--- Starting execution: elapsed 0:00:00.005
--- sp.gms(76) 4 Mb
--- Generating LP model shortestPath
--- sp.gms(95) 4 Mb
---   51 rows  134 columns  400 non-zeroes
--- Executing CPLEX (Solvelink=2): elapsed 0:00:00.009

IBM ILOG CPLEX   38.1.0 a1a3b545 Jan 31, 2022          WEI x86 64bit/MS Window

--- GAMS/Cplex Link licensed for continuous and discrete problems.
--- GMO setup time: 0.00s
--- GMO memory 0.52 Mb (peak 0.52 Mb)
--- Dictionary memory 0.00 Mb
--- Cplex 20.1.0.1 link memory 0.00 Mb (peak 0.01 Mb)
--- Starting Cplex

Version identifier: 20.1.0.1 | 2021-04-07 | 3a818710c
CPXPARAM_Advance                                 0
CPXPARAM_Threads                                 1
CPXPARAM_MIP_Display                             4
CPXPARAM_MIP_Pool_Capacity                       0
CPXPARAM_MIP_Tolerances_AbsMIPGap                0
Tried aggregator 1 time.
LP Presolve eliminated 14 rows and 51 columns.
Aggregator did 18 substitutions.
Reduced LP has 18 rows, 65 columns, and 117 nonzeros.
Presolve time = 0.00 sec. (0.11 ticks)

Iteration log . . .
Iteration:     1   Dual objective     =           360.708798

--- LP status (1): optimal.
--- Cplex Time: 0.00sec (det. 0.15 ticks)


Optimal solution found
Objective:          455.276523

--- Reading solution for model shortestPath
--- Executing after solve: elapsed 0:00:00.038
--- sp.gms(289) 4 Mb
Shell Execute    38.1.0 a1a3b545 Jan 31, 2022          VS8 x86 32bit/MS Window
--- Putfile fln C:\projects\OptimizationModels\ShortestPath\networkdata.js
*** Status: Normal completion
--- Job sp.gms Stop 02/15/22 15:42:37 elapsed 0:00:00.119
